939777
939777
939777
939777
939777
928549
911831
904117
904117
904117
899617
899617
885238
885238
885238
885238
885238
880738
880738
867199
867199
867199
867199
861489
861489
861489
861489
861489
859665
852814
852814
852814
852814
848312
845343
845343
845343
845343
845343
845343
845343
845343
844590
844126
844126
844126
844126
844126
844126
844126
844126
844126
844126
844126
844126
843262
843262
843262
843262
843262
843262
843262
843262
843262
843262
843262
843262
843262
843262
843262
843262
843262
843262
843262
843262
843262
843262
843262
843262
843262
843262
843262
843262
843262
843262
843262
843262
843262
843262
843262
843262
843262
843262
843262
843262
843262
843262
843262
843262
843262
